
===== New CPLEX run =====
Instance: /home/yorig/tuner/mpils-tests/instances/miplib/easy/lotsize.mps
Config: /scratch/yorig/mpils-results-grid-seconds-5-no-mip-start/easy/16proc/seed-3/4_lotsize_seed-3_20260502_223218/expansion/config_param_CPXPARAM_Advance_2_iter_3.prm
========================

Selected objective sense:  MINIMIZE
Selected objective  name:  R1921
Selected RHS        name:  B
Selected bound      name:  BOUND
Version identifier: 22.1.2.0 | 2024-11-26 | 0edbb82fd
CPXPARAM_Advance                                 2
CPXPARAM_Threads                                 8
CPXPARAM_Parallel                                1
CPXPARAM_MIP_Cuts_Cliques                        2
CPXPARAM_MIP_Cuts_FlowCovers                     2
CPXPARAM_MIP_Cuts_Implied                        1
CPXPARAM_MIP_Limits_GomoryCand                   800
CPXPARAM_MIP_Cuts_Gomory                         -1
CPXPARAM_MIP_Cuts_PathCut                        1
CPXPARAM_MIP_Cuts_MIRCut                         2
CPXPARAM_MIP_Cuts_Disjunctive                    2
CPXPARAM_Emphasis_MIP                            1
CPXPARAM_MIP_Strategy_BBInterval                 4
CPXPARAM_TimeLimit                               5
Tried aggregator 1 time.
MIP Presolve eliminated 595 rows and 0 columns.
MIP Presolve added 1190 rows and 0 columns.
MIP Presolve modified 10 coefficients.
Reduced MIP has 2515 rows, 2985 columns, and 7755 nonzeros.
Reduced MIP has 1195 binaries, 0 generals, 0 SOSs, and 0 indicators.
Presolve time = 0.00 sec. (4.53 ticks)
Probing fixed 0 vars, tightened 5487 bounds.
Probing time = 0.01 sec. (18.38 ticks)
Tried aggregator 2 times.
Detecting symmetries...
MIP Presolve modified 1206 coefficients.
Aggregator did 10 substitutions.
Reduced MIP has 2505 rows, 2975 columns, and 7735 nonzeros.
Reduced MIP has 1195 binaries, 0 generals, 0 SOSs, and 0 indicators.
Presolve time = 0.00 sec. (6.66 ticks)
Probing fixed 0 vars, tightened 2401 bounds.
Probing time = 0.00 sec. (6.41 ticks)
Clique table members: 190.
MIP emphasis: integer feasibility.
MIP search method: dynamic search.
Parallel mode: deterministic, using up to 8 threads.
Root relaxation solution time = 0.01 sec. (9.71 ticks)

        Nodes                                         Cuts/
   Node  Left     Objective  IInf  Best Integer    Best Bound    ItCnt     Gap

      0     0   348385.3466   472                 348385.3466      882         
      0     0   583577.4049   435                   Cuts: 726     1819         
      0     0   818290.4051   692                   Cuts: 726     2653         
*     0+    0                       1.01740e+07   818290.4051            91.96%
*     0+    0                      7973370.0000   818290.4051            89.74%
      0     0   947113.9594   686  7973370.0000     Cuts: 726     3332   88.12%
Detecting symmetries...
      0     2   947113.9594   686  7973370.0000   949700.7247     3332   88.09%
Elapsed time = 0.46 sec. (613.28 ticks, tree = 0.02 MB, solutions = 2)
    429   393   999212.8472   595  7973370.0000   949700.7247     7651   88.09%
   1024   831  1146818.7408   469  7973370.0000   949700.7247    13905   88.09%

Performing restart 1

Repeating presolve.
Tried aggregator 1 time.
MIP Presolve modified 1156 coefficients.
Reduced MIP has 2505 rows, 2975 columns, and 7735 nonzeros.
Reduced MIP has 1195 binaries, 0 generals, 0 SOSs, and 0 indicators.
Presolve time = 0.00 sec. (3.78 ticks)
Tried aggregator 1 time.
MIP Presolve modified 1023 coefficients.
Reduced MIP has 2505 rows, 2975 columns, and 7735 nonzeros.
Reduced MIP has 1195 binaries, 0 generals, 0 SOSs, and 0 indicators.
Presolve time = 0.00 sec. (5.12 ticks)
Represolve time = 0.02 sec. (18.91 ticks)
   1738     0  1070214.8248   702  7973370.0000     Cuts: 726    27978   86.58%
   1738     0  1165198.3647   693  7973370.0000     Cuts: 726    28821   85.39%
   1738     0  1234987.6657   687  7973370.0000     Cuts: 726    29661   84.51%
   1738     2  1234987.6657   687  7973370.0000  1234987.6657    29661   84.51%
   1756    20  1328013.4883   568  7973370.0000  1235146.5611    30362   84.51%
   1778    42  1340941.5650   524  7973370.0000  1235146.5611    30893   84.51%
   1820    82  1380459.1774   465  7973370.0000  1235146.5611    31930   84.51%
   1826     8  1329154.1230   681  7973370.0000  1235743.5270    30010   84.50%
   1838    99  1510639.6376   526  7973370.0000  1235743.5270    36818   84.50%
   1882   142  1573207.4245   419  7973370.0000  1267254.4862    48935   84.11%
*  2129+  189                      1821555.0000  1311144.0615            28.02%
   2466   488  1523679.5920   515  1821555.0000  1311144.0615    84828   28.02%
Elapsed time = 4.42 sec. (5447.46 ticks, tree = 0.62 MB, solutions = 3)
*  2612+  592                      1748021.0000  1311144.0615            24.99%
*  2615+  592                      1746006.0000  1311144.0615            24.91%
*  2617+  592                      1745285.0000  1311144.0615            24.88%
*  2640+  682                      1717308.0000  1311144.0615            23.65%
*  2640+  682                      1715772.0000  1311144.0615            23.58%
*  2641+  661                      1715383.0000  1311144.0615            23.57%
*  2646+  661                      1707735.0000  1311144.0615            23.22%
*  2650+  661                      1703876.0000  1311144.0615            23.05%
*  2667+  757                      1694892.0000  1311144.0615            22.64%
*  2851+  772                      1688233.0000  1311144.0615            22.34%
*  2853+  772                      1662887.0000  1311144.0615            21.15%
*  2866+  733                      1631395.0000  1311144.0615            19.63%
*  2872+  733                      1630163.0000  1311144.0615            19.57%

Clique cuts applied:  1
Cover cuts applied:  23
Implied bound cuts applied:  11
Flow cuts applied:  949
Mixed integer rounding cuts applied:  1197
Flow path cuts applied:  78
Multi commodity flow cuts applied:  24
Lift and project cuts applied:  20
Disjunctive cuts applied:  0
Cone linearizations applied:  0

Root node processing (before b&c):
  Real time             =    0.45 sec. (611.11 ticks)
Parallel b&c, 8 threads:
  Real time             =    4.55 sec. (5575.23 ticks)
  Sync time (average)   =    0.30 sec.
  Wait time (average)   =    0.00 sec.
                          ------------
Total (root+branch&cut) =    5.01 sec. (6186.34 ticks)
Gap: 19.57%
Upper bound: 1.63016e+06
Lower bound: 1.31114e+06
End of CPLEX run. Time: 5.00674 seconds

===== New CPLEX run =====
Instance: /home/yorig/tuner/mpils-tests/instances/miplib/easy/lotsize.mps
Config: /scratch/yorig/mpils-results-grid-seconds-5-no-mip-start/easy/16proc/seed-3/4_lotsize_seed-3_20260502_223218/expansion/config_param_CPXPARAM_MIP_Limits_AggForCut_0_iter_3.prm
========================

Selected objective sense:  MINIMIZE
Selected objective  name:  R1921
Selected RHS        name:  B
Selected bound      name:  BOUND
Version identifier: 22.1.2.0 | 2024-11-26 | 0edbb82fd
CPXPARAM_Threads                                 8
CPXPARAM_Parallel                                1
CPXPARAM_MIP_Cuts_Cliques                        2
CPXPARAM_MIP_Cuts_FlowCovers                     2
CPXPARAM_MIP_Cuts_Implied                        1
CPXPARAM_MIP_Limits_GomoryCand                   800
CPXPARAM_MIP_Cuts_Gomory                         -1
CPXPARAM_MIP_Cuts_PathCut                        1
CPXPARAM_MIP_Cuts_MIRCut                         2
CPXPARAM_MIP_Cuts_Disjunctive                    2
CPXPARAM_MIP_Limits_AggForCut                    0
CPXPARAM_Emphasis_MIP                            1
CPXPARAM_MIP_Strategy_BBInterval                 4
CPXPARAM_TimeLimit                               5
Tried aggregator 1 time.
MIP Presolve eliminated 595 rows and 0 columns.
MIP Presolve added 1190 rows and 0 columns.
MIP Presolve modified 10 coefficients.
Reduced MIP has 2515 rows, 2985 columns, and 7755 nonzeros.
Reduced MIP has 1195 binaries, 0 generals, 0 SOSs, and 0 indicators.
Presolve time = 0.00 sec. (4.53 ticks)
Probing fixed 0 vars, tightened 5487 bounds.
Probing time = 0.01 sec. (18.38 ticks)
Tried aggregator 2 times.
Detecting symmetries...
MIP Presolve modified 1206 coefficients.
Aggregator did 10 substitutions.
Reduced MIP has 2505 rows, 2975 columns, and 7735 nonzeros.
Reduced MIP has 1195 binaries, 0 generals, 0 SOSs, and 0 indicators.
Presolve time = 0.00 sec. (6.66 ticks)
Probing fixed 0 vars, tightened 2401 bounds.
Probing time = 0.00 sec. (6.41 ticks)
Clique table members: 190.
MIP emphasis: integer feasibility.
MIP search method: dynamic search.
Parallel mode: deterministic, using up to 8 threads.
Root relaxation solution time = 0.01 sec. (9.71 ticks)

        Nodes                                         Cuts/
   Node  Left     Objective  IInf  Best Integer    Best Bound    ItCnt     Gap

      0     0   348385.3466   472                 348385.3466      882         
      0     0   561997.5163   442                   Cuts: 726     1820         
      0     0   691676.7385   725                   Cuts: 713     2439         
      0     0   754369.9915   799                   Cuts: 480     2919         
Detecting symmetries...
      0     2   754369.9915   799                 754369.9915     2919         
Elapsed time = 0.24 sec. (348.35 ticks, tree = 0.02 MB, solutions = 0)
    366   295   872158.5767   685                 754506.1711     8878         
    792   725   981361.4182   584                 754506.1711    14542         
   1297  1168    infeasible                       754506.1711    22004         
   1901  1676  1685789.1881   176                 754506.1711    28491         
   2489  2165  1458584.4826   244                 754506.1711    33291         
   3110  2758  1629544.2338   159                 754506.1711    38465         
*  3283  3010      integral     0  2199448.0000   754506.1711    39571   65.70%
*  3678+ 3269                      2168821.0000   754506.1711            65.21%
*  3757+ 3324                      2144683.0000   754506.1711            64.82%
*  3810  3455      integral     0  2134343.0000   754506.1711    41960   64.65%
   4579  4065  1733803.7915    99  2134343.0000   776841.5695    47189   63.60%

Performing restart 1

Repeating presolve.
Tried aggregator 1 time.
MIP Presolve modified 1152 coefficients.
Reduced MIP has 2505 rows, 2975 columns, and 7735 nonzeros.
Reduced MIP has 1195 binaries, 0 generals, 0 SOSs, and 0 indicators.
Presolve time = 0.00 sec. (3.79 ticks)
Tried aggregator 1 time.
MIP Presolve modified 1015 coefficients.
Reduced MIP has 2505 rows, 2975 columns, and 7735 nonzeros.
Reduced MIP has 1195 binaries, 0 generals, 0 SOSs, and 0 indicators.
Presolve time = 0.00 sec. (5.12 ticks)
Represolve time = 0.02 sec. (18.93 ticks)
   4856     0   817041.4625   956  2134343.0000     Cuts: 344    58809   61.72%
   4856     0   836221.5663   900  2134343.0000     Cuts: 278    59121   60.82%
   4856     0   852970.1543   924  2134343.0000     Cuts: 286    59389   60.04%
   4856     2   852970.1543   924  2134343.0000   852970.1543    59389   60.04%
Elapsed time = 2.82 sec. (3663.53 ticks, tree = 0.02 MB, solutions = 4)
   6010   979  1398070.8274   366  2134343.0000   860990.2520    92386   59.66%
   8672  3530  1802705.9631    53  2134343.0000   860990.2520   118651   59.66%
*  8811+ 3622                      2113765.0000   860990.2520            59.27%
*  8852  3638      integral     0  2077754.0000   860990.2520   119804   58.56%
*  9044+ 3815                      1950166.0000   860990.2520            55.85%
*  9108  3638      integral     0  1929092.0000   860990.2520   121562   55.37%
*  9456+ 3893                      1708595.0000   860990.2520            49.61%
*  9464+ 3825                      1681378.0000   860990.2520            48.79%
*  9532+ 3824                      1680747.0000   860990.2520            48.77%
*  9536+ 3823                      1680091.0000   860990.2520            48.75%
*  9950+ 3499                      1677921.0000   860990.2520            48.69%

Clique cuts applied:  1
Cover cuts applied:  27
Implied bound cuts applied:  19
Flow cuts applied:  448
Mixed integer rounding cuts applied:  825
Flow path cuts applied:  344
Multi commodity flow cuts applied:  86
Lift and project cuts applied:  33
Disjunctive cuts applied:  0
Cone linearizations applied:  0

Root node processing (before b&c):
  Real time             =    0.24 sec. (345.78 ticks)
Parallel b&c, 8 threads:
  Real time             =    4.77 sec. (6037.87 ticks)
  Sync time (average)   =    0.41 sec.
  Wait time (average)   =    0.00 sec.
                          ------------
Total (root+branch&cut) =    5.00 sec. (6383.65 ticks)
Gap: 48.69%
Upper bound: 1.67792e+06
Lower bound: 860990
End of CPLEX run. Time: 5.00518 seconds
